sat
(model
  (define-fun |zip$unknown:3|
    ( (v_0 Int) (v_1 Int) (v_2 Int) ) Bool
    (= (+ v_0 (* (- 1) v_1)) 0)
  )
  (define-fun |zip$unknown:2|
    ( (v_0 Int) (v_1 Int) ) Bool
    (and (or (= v_1 0) (not (= v_0 0))) (= (+ v_0 (* (- 1) v_1)) 0) (or (= v_0 0) (not (= v_1 0))))
  )
)
